results_rootrelaxation/bin012_050_030.srr.sol
solution status: optimal solution found
objective value:                 3.33066907387547e-16
_var72_                            0.0033236994219636 	(obj:0)
_var155_                           0.0112716763005791 	(obj:0)
_var238_                            0.148554913294798 	(obj:0)
_var530_                            0.241473988439305 	(obj:0)
_var677_                           0.0531791907514465 	(obj:0)
_var681_                           0.0754335260115608 	(obj:0)
_var682_                            0.122976878612717 	(obj:0)
_var688_                            0.370086705202312 	(obj:0)
_var690_                            0.166618497109827 	(obj:0)
_var691_                            0.092052023121386 	(obj:0)
_var695_                            0.371531791907515 	(obj:0)
_var696_                            0.225722543352601 	(obj:0)
_var698_                           0.0875722543352595 	(obj:0)
_var701_                           0.0752890173410369 	(obj:0)
_var703_                           0.0364161849710988 	(obj:0)
_var712_                            0.233815028901732 	(obj:0)
_var713_                            0.445520231213873 	(obj:0)
_var714_                          0.00520231213872677 	(obj:0)
_var715_                            0.308526011560696 	(obj:0)
_var716_                            0.124421965317917 	(obj:0)
_var722_                            0.633092485549135 	(obj:0)
_var725_                           0.0723988439306333 	(obj:0)
_var727_                            0.203757225433527 	(obj:0)
_var729_                             0.16979768786127 	(obj:0)
_var730_                           0.0754335260115608 	(obj:0)
_var736_                            0.493063583815029 	(obj:0)
_var738_                            0.143063583815029 	(obj:0)
_var740_                            0.172543352601153 	(obj:0)
_var741_                             0.18627167630058 	(obj:0)
_var746_                            0.128757225433523 	(obj:0)
_var748_                            0.334682080924855 	(obj:0)
_var749_                            0.104046242774568 	(obj:0)
_var750_                             0.29378612716763 	(obj:0)
_var752_                            0.365028901734101 	(obj:0)
_var753_                            0.629768786127171 	(obj:0)
_var756_                           0.0450867052023147 	(obj:0)
_var759_                            0.141184971098265 	(obj:0)
_var760_                            0.383526011560693 	(obj:0)
_var761_                           0.0932080924855496 	(obj:0)
_var763_                            0.203468208092486 	(obj:0)
_var764_                           0.0917630057803503 	(obj:0)
_var768_                            0.255780346820809 	(obj:0)
_var769_                           0.0669075144508721 	(obj:0)
_var770_                           0.0926300578034662 	(obj:0)
_var775_                            0.056936416184969 	(obj:0)
_var776_                            0.219942196531793 	(obj:0)
_var778_                             0.47919075144509 	(obj:0)
_var779_                           0.0500000000000023 	(obj:0)
_var780_                            0.208959537572253 	(obj:0)
_var782_                           0.0299132947976858 	(obj:0)
_var784_                            0.295809248554913 	(obj:0)
_var786_                           0.0109826589595343 	(obj:0)
_var787_                            0.286994219653179 	(obj:0)
_var788_                            0.141184971098265 	(obj:0)
_var790_                           0.0278901734104064 	(obj:0)
_var795_                            0.111705202312142 	(obj:0)
_var796_                            0.169797687861273 	(obj:0)
_var797_                            0.117774566473989 	(obj:0)
_var798_                           0.0697976878612696 	(obj:0)
_var799_                           0.0771676300578024 	(obj:0)
_var802_                           0.0416184971098267 	(obj:0)
_var806_                           0.0210982658959582 	(obj:0)
_var808_                          0.00520231213872688 	(obj:0)
