results_rootrelaxation/bin012_050_030.srr.log
SCIP version 8.0.3.5 [precision: 8 byte] [memory: block] [mode: optimized] [LP solver: Soplex 6.0.1.3] [GitHash: 438792519e]
Copyright (c) 2002-2023 Zuse Institute Berlin (ZIB)

External libraries: 
  Readline 8.1         GNU library for command line editing (gnu.org/s/readline)
  Soplex 6.0.1.3       Linear Programming Solver developed at Zuse Institute Berlin (soplex.zib.de) [GitHash: 713be0fe]
  CppAD 20180000.0     Algorithmic Differentiation of C++ algorithms developed by B. Bell (github.com/coin-or/CppAD)
  ZLIB 1.2.11          General purpose compression library by J. Gailly and M. Adler (zlib.net)
  bliss 0.77           Computing Graph Automorphism Groups by T. Junttila and P. Kaski (www.tcs.hut.fi/Software/bliss/)

user parameter file <scip.set> not found - using default parameters

srr/relaxation = TRUE

read problem <instances/bin012_050_030.srr>
============

Original problem: 
original problem has 0 variables (0 bin, 0 int, 0 impl, 0 cont) and 77 constraints

presolving:
presolving (1 rounds: 1 fast, 1 medium, 1 exhaustive):
 0 deleted vars, 0 deleted constraints, 0 added constraints, 0 tightened bounds, 0 added holes, 0 changed sides, 0 changed coefficients
 0 implications, 0 cliques
presolved problem has 0 variables (0 bin, 0 int, 0 impl, 0 cont) and 77 constraints
     77 constraints of type <linear>
Presolving Time: 0.00

 time | node  | left  |LP iter|LP it/n|mem/heur|mdpt |vars |cons |rows |cuts |sepa|confs|strbr|  dualbound   | primalbound  |  gap   | compl. 
  0.0s|     1 |     0 |     1 |     - |   710k |   0 |   1 |  77 |  77 |   0 |  0 |   0 |   0 |      --      |      --      |    Inf | unknown
r 0.0s|     1 |     0 |   666 |     - |simplero|   0 | 666 |  77 |  77 |   0 |  0 |   0 |   0 |      --      | 1.466223e+01 |    Inf | unknown
r 0.0s|     1 |     0 |   690 |     - |simplero|   0 | 677 |  77 |  77 |   0 |  0 |   0 |   0 |      --      | 1.421812e+01 |    Inf | unknown
r 0.0s|     1 |     0 |   779 |     - |simplero|   0 | 688 |  77 |  77 |   0 |  0 |   0 |   0 |      --      | 1.057936e+01 |    Inf | unknown
r 0.0s|     1 |     0 |   833 |     - |simplero|   0 | 699 |  77 |  77 |   0 |  0 |   0 |   0 |      --      | 9.142328e+00 |    Inf | unknown
r 0.1s|     1 |     0 |   934 |     - |simplero|   0 | 710 |  77 |  77 |   0 |  0 |   0 |   0 |      --      | 7.056505e+00 |    Inf | unknown
r 0.1s|     1 |     0 |   988 |     - |simplero|   0 | 721 |  77 |  77 |   0 |  0 |   0 |   0 |      --      | 5.919324e+00 |    Inf | unknown
r 0.1s|     1 |     0 |  1046 |     - |simplero|   0 | 732 |  77 |  77 |   0 |  0 |   0 |   0 |      --      | 4.408208e+00 |    Inf | unknown
r 0.1s|     1 |     0 |  1082 |     - |simplero|   0 | 743 |  77 |  77 |   0 |  0 |   0 |   0 |      --      | 3.561366e+00 |    Inf | unknown
r 0.1s|     1 |     0 |  1099 |     - |simplero|   0 | 743 |  77 |  77 |   0 |  0 |   0 |   0 |      --      | 3.312225e+00 |    Inf | unknown
r 0.1s|     1 |     0 |  1145 |     - |simplero|   0 | 754 |  77 |  77 |   0 |  0 |   0 |   0 |      --      | 1.975644e+00 |    Inf | unknown
r 0.1s|     1 |     0 |  1162 |     - |simplero|   0 | 754 |  77 |  77 |   0 |  0 |   0 |   0 |      --      | 1.934454e+00 |    Inf | unknown
r 0.1s|     1 |     0 |  1165 |     - |simplero|   0 | 754 |  77 |  77 |   0 |  0 |   0 |   0 |      --      | 1.933892e+00 |    Inf | unknown
r 0.1s|     1 |     0 |  1214 |     - |simplero|   0 | 765 |  77 |  77 |   0 |  0 |   0 |   0 |      --      | 1.337183e+00 |    Inf | unknown
r 0.1s|     1 |     0 |  1221 |     - |simplero|   0 | 765 |  77 |  77 |   0 |  0 |   0 |   0 |      --      | 1.333585e+00 |    Inf | unknown
 time | node  | left  |LP iter|LP it/n|mem/heur|mdpt |vars |cons |rows |cuts |sepa|confs|strbr|  dualbound   | primalbound  |  gap   | compl. 
r 0.1s|     1 |     0 |  1223 |     - |simplero|   0 | 765 |  77 |  77 |   0 |  0 |   0 |   0 |      --      | 1.333368e+00 |    Inf | unknown
r 0.1s|     1 |     0 |  1258 |     - |simplero|   0 | 776 |  77 |  77 |   0 |  0 |   0 |   0 |      --      | 1.004594e+00 |    Inf | unknown
r 0.1s|     1 |     0 |  1272 |     - |simplero|   0 | 776 |  77 |  77 |   0 |  0 |   0 |   0 |      --      | 9.582146e-01 |    Inf | unknown
r 0.1s|     1 |     0 |  1320 |     - |simplero|   0 | 787 |  77 |  77 |   0 |  0 |   0 |   0 |      --      | 5.101542e-01 |    Inf | unknown
r 0.1s|     1 |     0 |  1368 |     - |simplero|   0 | 798 |  77 |  77 |   0 |  0 |   0 |   0 |      --      | 8.532510e-02 |    Inf | unknown
r 0.1s|     1 |     0 |  1369 |     - |simplero|   0 | 798 |  77 |  77 |   0 |  0 |   0 |   0 |      --      | 8.441439e-02 |    Inf | unknown
r 0.1s|     1 |     0 |  1381 |     - |simplero|   0 | 809 |  77 |  77 |   0 |  0 |   0 |   0 |      --      | 3.330669e-16 |    Inf | unknown
  0.1s|     1 |     0 |  1381 |     - |  3671k |   0 | 809 |  77 |  77 |   0 |  0 |   0 |   0 | 3.330669e-16 | 3.330669e-16 |   0.00%| unknown
  0.1s|     1 |     0 |  1381 |     - |  3671k |   0 | 809 |  77 |  77 |   0 |  0 |   0 |   0 | 3.330669e-16 | 3.330669e-16 |   0.00%| unknown

SCIP Status        : problem is solved [optimal solution found]
Solving Time (sec) : 0.08
Solving Nodes      : 1
Primal Bound       : +3.33066907387547e-16 (21 solutions)
Dual Bound         : +3.33066907387547e-16
Gap                : 0.00 %

written transformed problem to file <results_rootrelaxation/bin012_050_030.srr.lp>
written transformed problem to file <results_rootrelaxation/bin012_050_030.srr.cip>


SCIP version 8.0.3.5 [precision: 8 byte] [memory: block] [mode: optimized] [LP solver: Soplex 6.0.1.3] [GitHash: 438792519e]
Copyright (c) 2002-2023 Zuse Institute Berlin (ZIB)

External libraries: 
  Readline 8.1         GNU library for command line editing (gnu.org/s/readline)
  Soplex 6.0.1.3       Linear Programming Solver developed at Zuse Institute Berlin (soplex.zib.de) [GitHash: 713be0fe]
  CppAD 20180000.0     Algorithmic Differentiation of C++ algorithms developed by B. Bell (github.com/coin-or/CppAD)
  ZLIB 1.2.11          General purpose compression library by J. Gailly and M. Adler (zlib.net)
  bliss 0.77           Computing Graph Automorphism Groups by T. Junttila and P. Kaski (www.tcs.hut.fi/Software/bliss/)

user parameter file <scip.set> not found - using default parameters

srr/relaxation = TRUE

read problem <instances/bin012_050_030.srr>
============

Original problem: 
original problem has 0 variables (0 bin, 0 int, 0 impl, 0 cont) and 77 constraints

presolving:
presolving (1 rounds: 1 fast, 1 medium, 1 exhaustive):
 0 deleted vars, 0 deleted constraints, 0 added constraints, 0 tightened bounds, 0 added holes, 0 changed sides, 0 changed coefficients
 0 implications, 0 cliques
presolved problem has 0 variables (0 bin, 0 int, 0 impl, 0 cont) and 77 constraints
     77 constraints of type <linear>
Presolving Time: 0.00

 time | node  | left  |LP iter|LP it/n|mem/heur|mdpt |vars |cons |rows |cuts |sepa|confs|strbr|  dualbound   | primalbound  |  gap   | compl. 
  0.0s|     1 |     0 |     1 |     - |   710k |   0 |   1 |  77 |  77 |   0 |  0 |   0 |   0 |      --      |      --      |    Inf | unknown
r 0.0s|     1 |     0 |   666 |     - |simplero|   0 | 666 |  77 |  77 |   0 |  0 |   0 |   0 |      --      | 1.466223e+01 |    Inf | unknown
r 0.0s|     1 |     0 |   690 |     - |simplero|   0 | 677 |  77 |  77 |   0 |  0 |   0 |   0 |      --      | 1.421812e+01 |    Inf | unknown
r 0.0s|     1 |     0 |   779 |     - |simplero|   0 | 688 |  77 |  77 |   0 |  0 |   0 |   0 |      --      | 1.057936e+01 |    Inf | unknown
r 0.0s|     1 |     0 |   833 |     - |simplero|   0 | 699 |  77 |  77 |   0 |  0 |   0 |   0 |      --      | 9.142328e+00 |    Inf | unknown
r 0.1s|     1 |     0 |   934 |     - |simplero|   0 | 710 |  77 |  77 |   0 |  0 |   0 |   0 |      --      | 7.056505e+00 |    Inf | unknown
r 0.1s|     1 |     0 |   988 |     - |simplero|   0 | 721 |  77 |  77 |   0 |  0 |   0 |   0 |      --      | 5.919324e+00 |    Inf | unknown
r 0.1s|     1 |     0 |  1046 |     - |simplero|   0 | 732 |  77 |  77 |   0 |  0 |   0 |   0 |      --      | 4.408208e+00 |    Inf | unknown
r 0.1s|     1 |     0 |  1082 |     - |simplero|   0 | 743 |  77 |  77 |   0 |  0 |   0 |   0 |      --      | 3.561366e+00 |    Inf | unknown
r 0.1s|     1 |     0 |  1099 |     - |simplero|   0 | 743 |  77 |  77 |   0 |  0 |   0 |   0 |      --      | 3.312225e+00 |    Inf | unknown
r 0.1s|     1 |     0 |  1145 |     - |simplero|   0 | 754 |  77 |  77 |   0 |  0 |   0 |   0 |      --      | 1.975644e+00 |    Inf | unknown
r 0.1s|     1 |     0 |  1162 |     - |simplero|   0 | 754 |  77 |  77 |   0 |  0 |   0 |   0 |      --      | 1.934454e+00 |    Inf | unknown
r 0.1s|     1 |     0 |  1165 |     - |simplero|   0 | 754 |  77 |  77 |   0 |  0 |   0 |   0 |      --      | 1.933892e+00 |    Inf | unknown
r 0.1s|     1 |     0 |  1214 |     - |simplero|   0 | 765 |  77 |  77 |   0 |  0 |   0 |   0 |      --      | 1.337183e+00 |    Inf | unknown
r 0.1s|     1 |     0 |  1221 |     - |simplero|   0 | 765 |  77 |  77 |   0 |  0 |   0 |   0 |      --      | 1.333585e+00 |    Inf | unknown
 time | node  | left  |LP iter|LP it/n|mem/heur|mdpt |vars |cons |rows |cuts |sepa|confs|strbr|  dualbound   | primalbound  |  gap   | compl. 
r 0.1s|     1 |     0 |  1223 |     - |simplero|   0 | 765 |  77 |  77 |   0 |  0 |   0 |   0 |      --      | 1.333368e+00 |    Inf | unknown
r 0.1s|     1 |     0 |  1258 |     - |simplero|   0 | 776 |  77 |  77 |   0 |  0 |   0 |   0 |      --      | 1.004594e+00 |    Inf | unknown
r 0.1s|     1 |     0 |  1272 |     - |simplero|   0 | 776 |  77 |  77 |   0 |  0 |   0 |   0 |      --      | 9.582146e-01 |    Inf | unknown
r 0.1s|     1 |     0 |  1320 |     - |simplero|   0 | 787 |  77 |  77 |   0 |  0 |   0 |   0 |      --      | 5.101542e-01 |    Inf | unknown
r 0.1s|     1 |     0 |  1368 |     - |simplero|   0 | 798 |  77 |  77 |   0 |  0 |   0 |   0 |      --      | 8.532510e-02 |    Inf | unknown
r 0.1s|     1 |     0 |  1369 |     - |simplero|   0 | 798 |  77 |  77 |   0 |  0 |   0 |   0 |      --      | 8.441439e-02 |    Inf | unknown
r 0.1s|     1 |     0 |  1381 |     - |simplero|   0 | 809 |  77 |  77 |   0 |  0 |   0 |   0 |      --      | 3.330669e-16 |    Inf | unknown
  0.1s|     1 |     0 |  1381 |     - |  3671k |   0 | 809 |  77 |  77 |   0 |  0 |   0 |   0 | 3.330669e-16 | 3.330669e-16 |   0.00%| unknown
  0.1s|     1 |     0 |  1381 |     - |  3671k |   0 | 809 |  77 |  77 |   0 |  0 |   0 |   0 | 3.330669e-16 | 3.330669e-16 |   0.00%| unknown

SCIP Status        : problem is solved [optimal solution found]
Solving Time (sec) : 0.07
Solving Nodes      : 1
Primal Bound       : +3.33066907387547e-16 (21 solutions)
Dual Bound         : +3.33066907387547e-16
Gap                : 0.00 %

written transformed problem to file <results_rootrelaxation/bin012_050_030.srr.lp>
written transformed problem to file <results_rootrelaxation/bin012_050_030.srr.cip>

written solution information to file <results_rootrelaxation/bin012_050_030.srr.sol>



